(set-logic HORN)
(set-info :source |
Author: Frank Schuessele <schuessf@informatik.uni-freiburg.de>
Date: 2022-02-28
Generated from a simplified version of SV-COMP example pthread-ext/33_double_lock_p1_vs.c using Ultimate
|)

(declare-fun Inv (Int (Array Int Int) Int Int Int Int Int Int Int) Bool)

(assert (forall ((count Int) (memory (Array Int Int)) (mutexb Int) (mutexa Int) (loc_thread1_1 Int) (loc_thread1_2 Int) (loc_thread2_1 Int) (loc_thread2_2 Int) (loc_main_1 Int)) (=> (Inv count memory mutexb mutexa loc_thread1_1 loc_thread1_2 loc_thread2_1 loc_thread2_2 loc_main_1) (Inv count memory mutexb mutexa loc_thread1_2 loc_thread1_1 loc_thread2_1 loc_thread2_2 loc_main_1))))
(assert (forall ((count Int) (memory (Array Int Int)) (mutexb Int) (mutexa Int) (loc_thread1_1 Int) (loc_thread1_2 Int) (loc_thread2_1 Int) (loc_thread2_2 Int) (loc_main_1 Int)) (=> (Inv count memory mutexb mutexa loc_thread1_1 loc_thread1_2 loc_thread2_1 loc_thread2_2 loc_main_1) (Inv count memory mutexb mutexa loc_thread1_1 loc_thread1_2 loc_thread2_2 loc_thread2_1 loc_main_1))))
(assert (forall ((count Int) (memory (Array Int Int)) (mutexb Int) (mutexa Int)) (Inv count memory mutexb mutexa (- 1) (- 1) (- 1) (- 1) 0)))
(assert (forall ((count Int) (memory (Array Int Int)) (mutexb Int) (mutexa Int) (loc_thread1_2 Int) (loc_thread2_1 Int) (loc_thread2_2 Int) (loc_main_1 Int)) (not (Inv count memory mutexb mutexa 0 loc_thread1_2 loc_thread2_1 loc_thread2_2 loc_main_1))))
(assert (forall ((count Int) (memory (Array Int Int)) (mutexb Int) (mutexa Int) (loc_thread1_2 Int) (loc_thread2_1 Int) (loc_thread2_2 Int) (loc_main_1 Int)) (not (Inv count memory mutexb mutexa 1 loc_thread1_2 loc_thread2_1 loc_thread2_2 loc_main_1))))
(assert (forall ((count Int) (memory_42 (Array Int Int)) (mutexb Int) (mutexa_13 Int) (loc_thread1_2 Int) (loc_thread2_1 Int) (loc_thread2_2 Int) (loc_main_1 Int) (memory_41 (Array Int Int))) (=> (Inv count memory_42 mutexb mutexa_13 2 loc_thread1_2 loc_thread2_1 loc_thread2_2 loc_main_1) (and (= (store memory_42 mutexa_13 1) memory_41) (= (select memory_42 mutexa_13) 0)) (Inv count memory_41 mutexb mutexa_13 4 loc_thread1_2 loc_thread2_1 loc_thread2_2 loc_main_1))))
(assert (forall ((count_1 Int) (memory (Array Int Int)) (mutexb Int) (mutexa Int) (loc_thread1_2 Int) (loc_thread2_1 Int) (loc_thread2_2 Int) (loc_main_1 Int)) (=> (Inv count_1 memory mutexb mutexa 4 loc_thread1_2 loc_thread2_1 loc_thread2_2 loc_main_1) (not (<= 0 (+ count_1 1))) (Inv count_1 memory mutexb mutexa 1 loc_thread1_2 loc_thread2_1 loc_thread2_2 loc_main_1))))
(assert (forall ((count_2 Int) (memory (Array Int Int)) (mutexb Int) (mutexa Int) (loc_thread1_2 Int) (loc_thread2_1 Int) (loc_thread2_2 Int) (loc_main_1 Int)) (=> (Inv count_2 memory mutexb mutexa 4 loc_thread1_2 loc_thread2_1 loc_thread2_2 loc_main_1) (<= 0 (+ count_2 1)) (Inv count_2 memory mutexb mutexa 5 loc_thread1_2 loc_thread2_1 loc_thread2_2 loc_main_1))))
(assert (forall ((count Int) (memory_38 (Array Int Int)) (mutexb_13 Int) (mutexa Int) (loc_thread1_2 Int) (loc_thread2_1 Int) (loc_thread2_2 Int) (loc_main_1 Int) (memory_37 (Array Int Int))) (=> (Inv count memory_38 mutexb_13 mutexa 5 loc_thread1_2 loc_thread2_1 loc_thread2_2 loc_main_1) (and (= (select memory_38 mutexb_13) 0) (= memory_37 (store memory_38 mutexb_13 1))) (Inv count memory_37 mutexb_13 mutexa 6 loc_thread1_2 loc_thread2_1 loc_thread2_2 loc_main_1))))
(assert (forall ((count_3 Int) (memory (Array Int Int)) (mutexb Int) (mutexa Int) (loc_thread1_2 Int) (loc_thread2_1 Int) (loc_thread2_2 Int) (loc_main_1 Int)) (=> (Inv count_3 memory mutexb mutexa 6 loc_thread1_2 loc_thread2_1 loc_thread2_2 loc_main_1) (not (= count_3 0)) (Inv count_3 memory mutexb mutexa 0 loc_thread1_2 loc_thread2_1 loc_thread2_2 loc_main_1))))
(assert (forall ((count_4 Int) (memory (Array Int Int)) (mutexb Int) (mutexa Int) (loc_thread1_2 Int) (loc_thread2_1 Int) (loc_thread2_2 Int) (loc_main_1 Int)) (=> (Inv count_4 memory mutexb mutexa 6 loc_thread1_2 loc_thread2_1 loc_thread2_2 loc_main_1) (= count_4 0) (Inv count_4 memory mutexb mutexa 7 loc_thread1_2 loc_thread2_1 loc_thread2_2 loc_main_1))))
(assert (forall ((count Int) (memory_54 (Array Int Int)) (mutexb_17 Int) (mutexa Int) (loc_thread1_2 Int) (loc_thread2_1 Int) (loc_thread2_2 Int) (loc_main_1 Int) (memory_53 (Array Int Int))) (=> (Inv count memory_54 mutexb_17 mutexa 7 loc_thread1_2 loc_thread2_1 loc_thread2_2 loc_main_1) (and (= (store memory_54 mutexb_17 0) memory_53) (= (select memory_54 mutexb_17) 1)) (Inv count memory_53 mutexb_17 mutexa 8 loc_thread1_2 loc_thread2_1 loc_thread2_2 loc_main_1))))
(assert (forall ((count Int) (memory_58 (Array Int Int)) (mutexb Int) (mutexa_17 Int) (loc_thread1_2 Int) (loc_thread2_1 Int) (loc_thread2_2 Int) (loc_main_1 Int) (memory_57 (Array Int Int))) (=> (Inv count memory_58 mutexb mutexa_17 8 loc_thread1_2 loc_thread2_1 loc_thread2_2 loc_main_1) (and (= memory_57 (store memory_58 mutexa_17 0)) (= (select memory_58 mutexa_17) 1)) (Inv count memory_57 mutexb mutexa_17 2 loc_thread1_2 loc_thread2_1 loc_thread2_2 loc_main_1))))
(assert (forall ((count Int) (memory_46 (Array Int Int)) (mutexb_15 Int) (mutexa Int) (loc_thread1_1 Int) (loc_thread1_2 Int) (loc_thread2_2 Int) (loc_main_1 Int) (memory_45 (Array Int Int))) (=> (Inv count memory_46 mutexb_15 mutexa loc_thread1_1 loc_thread1_2 0 loc_thread2_2 loc_main_1) (and (= (select memory_46 mutexb_15) 0) (= (store memory_46 mutexb_15 1) memory_45)) (Inv count memory_45 mutexb_15 mutexa loc_thread1_1 loc_thread1_2 1 loc_thread2_2 loc_main_1))))
(assert (forall ((count Int) (memory_50 (Array Int Int)) (mutexb Int) (mutexa_15 Int) (loc_thread1_1 Int) (loc_thread1_2 Int) (loc_thread2_2 Int) (loc_main_1 Int) (memory_49 (Array Int Int))) (=> (Inv count memory_50 mutexb mutexa_15 loc_thread1_1 loc_thread1_2 0 loc_thread2_2 loc_main_1) (and (= (select memory_50 mutexa_15) 0) (= memory_49 (store memory_50 mutexa_15 1))) (Inv count memory_49 mutexb mutexa_15 loc_thread1_1 loc_thread1_2 2 loc_thread2_2 loc_main_1))))
(assert (forall ((count_10 Int) (memory (Array Int Int)) (mutexb Int) (mutexa Int) (loc_thread1_1 Int) (loc_thread1_2 Int) (loc_thread2_2 Int) (loc_main_1 Int) (count_9 Int)) (=> (Inv count_10 memory mutexb mutexa loc_thread1_1 loc_thread1_2 1 loc_thread2_2 loc_main_1) (= (+ count_10 (- 1)) count_9) (Inv count_9 memory mutexb mutexa loc_thread1_1 loc_thread1_2 3 loc_thread2_2 loc_main_1))))
(assert (forall ((count_6 Int) (memory (Array Int Int)) (mutexb Int) (mutexa Int) (loc_thread1_1 Int) (loc_thread1_2 Int) (loc_thread2_2 Int) (loc_main_1 Int) (count_5 Int)) (=> (Inv count_6 memory mutexb mutexa loc_thread1_1 loc_thread1_2 2 loc_thread2_2 loc_main_1) (= count_5 (+ count_6 1)) (Inv count_5 memory mutexb mutexa loc_thread1_1 loc_thread1_2 4 loc_thread2_2 loc_main_1))))
(assert (forall ((count_12 Int) (memory (Array Int Int)) (mutexb Int) (mutexa Int) (loc_thread1_1 Int) (loc_thread1_2 Int) (loc_thread2_2 Int) (loc_main_1 Int) (count_11 Int)) (=> (Inv count_12 memory mutexb mutexa loc_thread1_1 loc_thread1_2 3 loc_thread2_2 loc_main_1) (= count_11 (+ count_12 1)) (Inv count_11 memory mutexb mutexa loc_thread1_1 loc_thread1_2 5 loc_thread2_2 loc_main_1))))
(assert (forall ((count_8 Int) (memory (Array Int Int)) (mutexb Int) (mutexa Int) (loc_thread1_1 Int) (loc_thread1_2 Int) (loc_thread2_2 Int) (loc_main_1 Int) (count_7 Int)) (=> (Inv count_8 memory mutexb mutexa loc_thread1_1 loc_thread1_2 4 loc_thread2_2 loc_main_1) (= count_7 (+ (- 1) count_8)) (Inv count_7 memory mutexb mutexa loc_thread1_1 loc_thread1_2 6 loc_thread2_2 loc_main_1))))
(assert (forall ((count Int) (memory_34 (Array Int Int)) (mutexb_11 Int) (mutexa Int) (loc_thread1_1 Int) (loc_thread1_2 Int) (loc_thread2_2 Int) (loc_main_1 Int) (memory_33 (Array Int Int))) (=> (Inv count memory_34 mutexb_11 mutexa loc_thread1_1 loc_thread1_2 5 loc_thread2_2 loc_main_1) (and (= (select memory_34 mutexb_11) 1) (= (store memory_34 mutexb_11 0) memory_33)) (Inv count memory_33 mutexb_11 mutexa loc_thread1_1 loc_thread1_2 7 loc_thread2_2 loc_main_1))))
(assert (forall ((count Int) (memory_30 (Array Int Int)) (mutexb Int) (mutexa_11 Int) (loc_thread1_1 Int) (loc_thread1_2 Int) (loc_thread2_2 Int) (loc_main_1 Int) (memory_29 (Array Int Int))) (=> (Inv count memory_30 mutexb mutexa_11 loc_thread1_1 loc_thread1_2 6 loc_thread2_2 loc_main_1) (and (= (store memory_30 mutexa_11 0) memory_29) (= (select memory_30 mutexa_11) 1)) (Inv count memory_29 mutexb mutexa_11 loc_thread1_1 loc_thread1_2 7 loc_thread2_2 loc_main_1))))
(assert (forall ((count Int) (memory (Array Int Int)) (mutexb Int) (mutexa Int) (loc_thread1_1 Int) (loc_thread1_2 Int) (loc_thread2_2 Int) (loc_main_1 Int)) (=> (Inv count memory mutexb mutexa loc_thread1_1 loc_thread1_2 7 loc_thread2_2 loc_main_1) (Inv count memory mutexb mutexa loc_thread1_1 loc_thread1_2 8 loc_thread2_2 loc_main_1))))
(assert (forall ((count Int) (memory (Array Int Int)) (mutexb Int) (mutexa Int) (loc_thread1_1 Int) (loc_thread1_2 Int) (loc_thread2_1 Int) (loc_thread2_2 Int) (count_13 Int)) (=> (Inv count memory mutexb mutexa loc_thread1_1 loc_thread1_2 loc_thread2_1 loc_thread2_2 0) (= count_13 0) (Inv count_13 memory mutexb mutexa loc_thread1_1 loc_thread1_2 loc_thread2_1 loc_thread2_2 1))))
(assert (forall ((count Int) (memory (Array Int Int)) (mutexb_9 Int) (mutexa_9 Int) (loc_thread1_1 Int) (loc_thread1_2 Int) (loc_thread2_1 Int) (loc_thread2_2 Int)) (=> (Inv count memory mutexb_9 mutexa_9 loc_thread1_1 loc_thread1_2 loc_thread2_1 loc_thread2_2 1) (not (= mutexb_9 mutexa_9)) (Inv count memory mutexb_9 mutexa_9 loc_thread1_1 loc_thread1_2 loc_thread2_1 loc_thread2_2 2))))
(assert (forall ((count Int) (memory_26 (Array Int Int)) (mutexb Int) (mutexa_10 Int) (loc_thread1_1 Int) (loc_thread1_2 Int) (loc_thread2_1 Int) (loc_thread2_2 Int) (memory_25 (Array Int Int))) (=> (Inv count memory_26 mutexb mutexa_10 loc_thread1_1 loc_thread1_2 loc_thread2_1 loc_thread2_2 2) (= memory_25 (store memory_26 mutexa_10 0)) (Inv count memory_25 mutexb mutexa_10 loc_thread1_1 loc_thread1_2 loc_thread2_1 loc_thread2_2 3))))
(assert (forall ((count Int) (memory_28 (Array Int Int)) (mutexb_10 Int) (mutexa Int) (loc_thread1_1 Int) (loc_thread1_2 Int) (loc_thread2_1 Int) (loc_thread2_2 Int) (memory_27 (Array Int Int))) (=> (Inv count memory_28 mutexb_10 mutexa loc_thread1_1 loc_thread1_2 loc_thread2_1 loc_thread2_2 3) (= (store memory_28 mutexb_10 0) memory_27) (Inv count memory_27 mutexb_10 mutexa loc_thread1_1 loc_thread1_2 loc_thread2_1 loc_thread2_2 4))))
(assert (forall ((count Int) (memory (Array Int Int)) (mutexb Int) (mutexa Int) (loc_thread1_2 Int) (loc_thread2_1 Int) (loc_thread2_2 Int)) (=> (Inv count memory mutexb mutexa (- 1) loc_thread1_2 loc_thread2_1 loc_thread2_2 4) (Inv count memory mutexb mutexa 2 loc_thread1_2 loc_thread2_1 loc_thread2_2 5))))
(assert (forall ((count Int) (memory (Array Int Int)) (mutexb Int) (mutexa Int) (loc_thread1_1 Int) (loc_thread1_2 Int) (loc_thread2_1 Int) (loc_thread2_2 Int)) (=> (Inv count memory mutexb mutexa loc_thread1_1 loc_thread1_2 loc_thread2_1 loc_thread2_2 4) (Inv count memory mutexb mutexa loc_thread1_1 loc_thread1_2 loc_thread2_1 loc_thread2_2 5))))
(assert (forall ((count Int) (memory (Array Int Int)) (mutexb Int) (mutexa Int) (loc_thread1_1 Int) (loc_thread1_2 Int) (loc_thread2_2 Int)) (=> (Inv count memory mutexb mutexa loc_thread1_1 loc_thread1_2 (- 1) loc_thread2_2 5) (Inv count memory mutexb mutexa loc_thread1_1 loc_thread1_2 0 loc_thread2_2 5))))
(assert (forall ((count Int) (memory (Array Int Int)) (mutexb Int) (mutexa Int) (loc_thread1_1 Int) (loc_thread1_2 Int) (loc_thread2_1 Int) (loc_thread2_2 Int)) (let ((.cse0 (Inv count memory mutexb mutexa loc_thread1_1 loc_thread1_2 loc_thread2_1 loc_thread2_2 5))) (=> .cse0 .cse0))))
(assert (forall ((count Int) (memory (Array Int Int)) (mutexb Int) (mutexa Int) (loc_thread1_1 Int) (loc_thread1_2 Int) (loc_thread2_1 Int) (loc_thread2_2 Int)) (=> (Inv count memory mutexb mutexa loc_thread1_1 loc_thread1_2 loc_thread2_1 loc_thread2_2 6) (Inv count memory mutexb mutexa loc_thread1_1 loc_thread1_2 loc_thread2_1 loc_thread2_2 7))))
(assert (forall ((count Int) (memory_42 (Array Int Int)) (mutexb Int) (mutexa_13 Int) (loc_thread1_1 Int) (loc_thread1_2 Int) (loc_thread2_1 Int) (loc_thread2_2 Int) (loc_main_1 Int) (memory_41 (Array Int Int))) (=> (Inv count memory_42 mutexb mutexa_13 2 loc_thread1_2 loc_thread2_1 loc_thread2_2 loc_main_1) (Inv count memory_42 mutexb mutexa_13 loc_thread1_1 2 loc_thread2_1 loc_thread2_2 loc_main_1) (Inv count memory_42 mutexb mutexa_13 loc_thread1_1 loc_thread1_2 loc_thread2_1 loc_thread2_2 loc_main_1) (and (= (store memory_42 mutexa_13 1) memory_41) (= (select memory_42 mutexa_13) 0)) (Inv count memory_41 mutexb mutexa_13 loc_thread1_1 loc_thread1_2 loc_thread2_1 loc_thread2_2 loc_main_1))))
(assert (forall ((count_1 Int) (memory (Array Int Int)) (mutexb Int) (mutexa Int) (loc_thread1_1 Int) (loc_thread1_2 Int) (loc_thread2_1 Int) (loc_thread2_2 Int) (loc_main_1 Int)) (let ((.cse0 (Inv count_1 memory mutexb mutexa loc_thread1_1 loc_thread1_2 loc_thread2_1 loc_thread2_2 loc_main_1))) (=> (Inv count_1 memory mutexb mutexa 4 loc_thread1_2 loc_thread2_1 loc_thread2_2 loc_main_1) (Inv count_1 memory mutexb mutexa loc_thread1_1 4 loc_thread2_1 loc_thread2_2 loc_main_1) .cse0 (not (<= 0 (+ count_1 1))) .cse0))))
(assert (forall ((count_2 Int) (memory (Array Int Int)) (mutexb Int) (mutexa Int) (loc_thread1_1 Int) (loc_thread1_2 Int) (loc_thread2_1 Int) (loc_thread2_2 Int) (loc_main_1 Int)) (let ((.cse0 (Inv count_2 memory mutexb mutexa loc_thread1_1 loc_thread1_2 loc_thread2_1 loc_thread2_2 loc_main_1))) (=> (Inv count_2 memory mutexb mutexa 4 loc_thread1_2 loc_thread2_1 loc_thread2_2 loc_main_1) (Inv count_2 memory mutexb mutexa loc_thread1_1 4 loc_thread2_1 loc_thread2_2 loc_main_1) .cse0 (<= 0 (+ count_2 1)) .cse0))))
(assert (forall ((count Int) (memory_38 (Array Int Int)) (mutexb_13 Int) (mutexa Int) (loc_thread1_1 Int) (loc_thread1_2 Int) (loc_thread2_1 Int) (loc_thread2_2 Int) (loc_main_1 Int) (memory_37 (Array Int Int))) (=> (Inv count memory_38 mutexb_13 mutexa 5 loc_thread1_2 loc_thread2_1 loc_thread2_2 loc_main_1) (Inv count memory_38 mutexb_13 mutexa loc_thread1_1 5 loc_thread2_1 loc_thread2_2 loc_main_1) (Inv count memory_38 mutexb_13 mutexa loc_thread1_1 loc_thread1_2 loc_thread2_1 loc_thread2_2 loc_main_1) (and (= (select memory_38 mutexb_13) 0) (= memory_37 (store memory_38 mutexb_13 1))) (Inv count memory_37 mutexb_13 mutexa loc_thread1_1 loc_thread1_2 loc_thread2_1 loc_thread2_2 loc_main_1))))
(assert (forall ((count_3 Int) (memory (Array Int Int)) (mutexb Int) (mutexa Int) (loc_thread1_1 Int) (loc_thread1_2 Int) (loc_thread2_1 Int) (loc_thread2_2 Int) (loc_main_1 Int)) (let ((.cse0 (Inv count_3 memory mutexb mutexa loc_thread1_1 loc_thread1_2 loc_thread2_1 loc_thread2_2 loc_main_1))) (=> (Inv count_3 memory mutexb mutexa 6 loc_thread1_2 loc_thread2_1 loc_thread2_2 loc_main_1) (Inv count_3 memory mutexb mutexa loc_thread1_1 6 loc_thread2_1 loc_thread2_2 loc_main_1) .cse0 (not (= count_3 0)) .cse0))))
(assert (forall ((count_4 Int) (memory (Array Int Int)) (mutexb Int) (mutexa Int) (loc_thread1_1 Int) (loc_thread1_2 Int) (loc_thread2_1 Int) (loc_thread2_2 Int) (loc_main_1 Int)) (let ((.cse0 (Inv count_4 memory mutexb mutexa loc_thread1_1 loc_thread1_2 loc_thread2_1 loc_thread2_2 loc_main_1))) (=> (Inv count_4 memory mutexb mutexa 6 loc_thread1_2 loc_thread2_1 loc_thread2_2 loc_main_1) (Inv count_4 memory mutexb mutexa loc_thread1_1 6 loc_thread2_1 loc_thread2_2 loc_main_1) .cse0 (= count_4 0) .cse0))))
(assert (forall ((count Int) (memory_54 (Array Int Int)) (mutexb_17 Int) (mutexa Int) (loc_thread1_1 Int) (loc_thread1_2 Int) (loc_thread2_1 Int) (loc_thread2_2 Int) (loc_main_1 Int) (memory_53 (Array Int Int))) (=> (Inv count memory_54 mutexb_17 mutexa 7 loc_thread1_2 loc_thread2_1 loc_thread2_2 loc_main_1) (Inv count memory_54 mutexb_17 mutexa loc_thread1_1 7 loc_thread2_1 loc_thread2_2 loc_main_1) (Inv count memory_54 mutexb_17 mutexa loc_thread1_1 loc_thread1_2 loc_thread2_1 loc_thread2_2 loc_main_1) (and (= (store memory_54 mutexb_17 0) memory_53) (= (select memory_54 mutexb_17) 1)) (Inv count memory_53 mutexb_17 mutexa loc_thread1_1 loc_thread1_2 loc_thread2_1 loc_thread2_2 loc_main_1))))
(assert (forall ((count Int) (memory_58 (Array Int Int)) (mutexb Int) (mutexa_17 Int) (loc_thread1_1 Int) (loc_thread1_2 Int) (loc_thread2_1 Int) (loc_thread2_2 Int) (loc_main_1 Int) (memory_57 (Array Int Int))) (=> (Inv count memory_58 mutexb mutexa_17 8 loc_thread1_2 loc_thread2_1 loc_thread2_2 loc_main_1) (Inv count memory_58 mutexb mutexa_17 loc_thread1_1 8 loc_thread2_1 loc_thread2_2 loc_main_1) (Inv count memory_58 mutexb mutexa_17 loc_thread1_1 loc_thread1_2 loc_thread2_1 loc_thread2_2 loc_main_1) (and (= memory_57 (store memory_58 mutexa_17 0)) (= (select memory_58 mutexa_17) 1)) (Inv count memory_57 mutexb mutexa_17 loc_thread1_1 loc_thread1_2 loc_thread2_1 loc_thread2_2 loc_main_1))))
(assert (forall ((count Int) (memory_46 (Array Int Int)) (mutexb_15 Int) (mutexa Int) (loc_thread1_1 Int) (loc_thread1_2 Int) (loc_thread2_1 Int) (loc_thread2_2 Int) (loc_main_1 Int) (memory_45 (Array Int Int))) (=> (Inv count memory_46 mutexb_15 mutexa loc_thread1_1 loc_thread1_2 0 loc_thread2_2 loc_main_1) (Inv count memory_46 mutexb_15 mutexa loc_thread1_1 loc_thread1_2 loc_thread2_1 0 loc_main_1) (Inv count memory_46 mutexb_15 mutexa loc_thread1_1 loc_thread1_2 loc_thread2_1 loc_thread2_2 loc_main_1) (and (= (select memory_46 mutexb_15) 0) (= (store memory_46 mutexb_15 1) memory_45)) (Inv count memory_45 mutexb_15 mutexa loc_thread1_1 loc_thread1_2 loc_thread2_1 loc_thread2_2 loc_main_1))))
(assert (forall ((count Int) (memory_50 (Array Int Int)) (mutexb Int) (mutexa_15 Int) (loc_thread1_1 Int) (loc_thread1_2 Int) (loc_thread2_1 Int) (loc_thread2_2 Int) (loc_main_1 Int) (memory_49 (Array Int Int))) (=> (Inv count memory_50 mutexb mutexa_15 loc_thread1_1 loc_thread1_2 0 loc_thread2_2 loc_main_1) (Inv count memory_50 mutexb mutexa_15 loc_thread1_1 loc_thread1_2 loc_thread2_1 0 loc_main_1) (Inv count memory_50 mutexb mutexa_15 loc_thread1_1 loc_thread1_2 loc_thread2_1 loc_thread2_2 loc_main_1) (and (= (select memory_50 mutexa_15) 0) (= memory_49 (store memory_50 mutexa_15 1))) (Inv count memory_49 mutexb mutexa_15 loc_thread1_1 loc_thread1_2 loc_thread2_1 loc_thread2_2 loc_main_1))))
(assert (forall ((count_10 Int) (memory (Array Int Int)) (mutexb Int) (mutexa Int) (loc_thread1_1 Int) (loc_thread1_2 Int) (loc_thread2_1 Int) (loc_thread2_2 Int) (loc_main_1 Int) (count_9 Int)) (=> (Inv count_10 memory mutexb mutexa loc_thread1_1 loc_thread1_2 1 loc_thread2_2 loc_main_1) (Inv count_10 memory mutexb mutexa loc_thread1_1 loc_thread1_2 loc_thread2_1 1 loc_main_1) (Inv count_10 memory mutexb mutexa loc_thread1_1 loc_thread1_2 loc_thread2_1 loc_thread2_2 loc_main_1) (= (+ count_10 (- 1)) count_9) (Inv count_9 memory mutexb mutexa loc_thread1_1 loc_thread1_2 loc_thread2_1 loc_thread2_2 loc_main_1))))
(assert (forall ((count_6 Int) (memory (Array Int Int)) (mutexb Int) (mutexa Int) (loc_thread1_1 Int) (loc_thread1_2 Int) (loc_thread2_1 Int) (loc_thread2_2 Int) (loc_main_1 Int) (count_5 Int)) (=> (Inv count_6 memory mutexb mutexa loc_thread1_1 loc_thread1_2 2 loc_thread2_2 loc_main_1) (Inv count_6 memory mutexb mutexa loc_thread1_1 loc_thread1_2 loc_thread2_1 2 loc_main_1) (Inv count_6 memory mutexb mutexa loc_thread1_1 loc_thread1_2 loc_thread2_1 loc_thread2_2 loc_main_1) (= count_5 (+ count_6 1)) (Inv count_5 memory mutexb mutexa loc_thread1_1 loc_thread1_2 loc_thread2_1 loc_thread2_2 loc_main_1))))
(assert (forall ((count_12 Int) (memory (Array Int Int)) (mutexb Int) (mutexa Int) (loc_thread1_1 Int) (loc_thread1_2 Int) (loc_thread2_1 Int) (loc_thread2_2 Int) (loc_main_1 Int) (count_11 Int)) (=> (Inv count_12 memory mutexb mutexa loc_thread1_1 loc_thread1_2 3 loc_thread2_2 loc_main_1) (Inv count_12 memory mutexb mutexa loc_thread1_1 loc_thread1_2 loc_thread2_1 3 loc_main_1) (Inv count_12 memory mutexb mutexa loc_thread1_1 loc_thread1_2 loc_thread2_1 loc_thread2_2 loc_main_1) (= count_11 (+ count_12 1)) (Inv count_11 memory mutexb mutexa loc_thread1_1 loc_thread1_2 loc_thread2_1 loc_thread2_2 loc_main_1))))
(assert (forall ((count_8 Int) (memory (Array Int Int)) (mutexb Int) (mutexa Int) (loc_thread1_1 Int) (loc_thread1_2 Int) (loc_thread2_1 Int) (loc_thread2_2 Int) (loc_main_1 Int) (count_7 Int)) (=> (Inv count_8 memory mutexb mutexa loc_thread1_1 loc_thread1_2 4 loc_thread2_2 loc_main_1) (Inv count_8 memory mutexb mutexa loc_thread1_1 loc_thread1_2 loc_thread2_1 4 loc_main_1) (Inv count_8 memory mutexb mutexa loc_thread1_1 loc_thread1_2 loc_thread2_1 loc_thread2_2 loc_main_1) (= count_7 (+ (- 1) count_8)) (Inv count_7 memory mutexb mutexa loc_thread1_1 loc_thread1_2 loc_thread2_1 loc_thread2_2 loc_main_1))))
(assert (forall ((count Int) (memory_34 (Array Int Int)) (mutexb_11 Int) (mutexa Int) (loc_thread1_1 Int) (loc_thread1_2 Int) (loc_thread2_1 Int) (loc_thread2_2 Int) (loc_main_1 Int) (memory_33 (Array Int Int))) (=> (Inv count memory_34 mutexb_11 mutexa loc_thread1_1 loc_thread1_2 5 loc_thread2_2 loc_main_1) (Inv count memory_34 mutexb_11 mutexa loc_thread1_1 loc_thread1_2 loc_thread2_1 5 loc_main_1) (Inv count memory_34 mutexb_11 mutexa loc_thread1_1 loc_thread1_2 loc_thread2_1 loc_thread2_2 loc_main_1) (and (= (select memory_34 mutexb_11) 1) (= (store memory_34 mutexb_11 0) memory_33)) (Inv count memory_33 mutexb_11 mutexa loc_thread1_1 loc_thread1_2 loc_thread2_1 loc_thread2_2 loc_main_1))))
(assert (forall ((count Int) (memory_30 (Array Int Int)) (mutexb Int) (mutexa_11 Int) (loc_thread1_1 Int) (loc_thread1_2 Int) (loc_thread2_1 Int) (loc_thread2_2 Int) (loc_main_1 Int) (memory_29 (Array Int Int))) (=> (Inv count memory_30 mutexb mutexa_11 loc_thread1_1 loc_thread1_2 6 loc_thread2_2 loc_main_1) (Inv count memory_30 mutexb mutexa_11 loc_thread1_1 loc_thread1_2 loc_thread2_1 6 loc_main_1) (Inv count memory_30 mutexb mutexa_11 loc_thread1_1 loc_thread1_2 loc_thread2_1 loc_thread2_2 loc_main_1) (and (= (store memory_30 mutexa_11 0) memory_29) (= (select memory_30 mutexa_11) 1)) (Inv count memory_29 mutexb mutexa_11 loc_thread1_1 loc_thread1_2 loc_thread2_1 loc_thread2_2 loc_main_1))))
(assert (forall ((count Int) (memory (Array Int Int)) (mutexb Int) (mutexa Int) (loc_thread1_1 Int) (loc_thread1_2 Int) (loc_thread2_1 Int) (loc_thread2_2 Int) (loc_main_1 Int)) (let ((.cse0 (Inv count memory mutexb mutexa loc_thread1_1 loc_thread1_2 loc_thread2_1 loc_thread2_2 loc_main_1))) (=> (Inv count memory mutexb mutexa loc_thread1_1 loc_thread1_2 7 loc_thread2_2 loc_main_1) (Inv count memory mutexb mutexa loc_thread1_1 loc_thread1_2 loc_thread2_1 7 loc_main_1) .cse0 .cse0))))
(check-sat)

(check-sat)
